results/poly_2.pk_20_20_20.smt2
(declare-fun p1x () Real)
(declare-fun p1y () Real)
(declare-fun p1z () Real)
(declare-fun dummy () Real)
(define-fun h () Real 20.0)
(assert (>= p1x 3))
(assert (>= p1y 0))
(assert (>= p1z 4))
(assert (<= p1x 12))
(assert (<= p1y 16))
(assert (<= p1z (- h 10)))
(check-sat)
(get-model)
